c Standarized MaxSat Instance
c{
c "sha1sum": "57bc2f364e32c6113d735e8cccf77674435da0ec",
c "nvars": 60,
c "ncls": 1120,
c "nhards": 0,
c "nhard_len_stats":
c    { "min": 0, "max": 0, "ave": 0.00,
c      "stddev": 0.00 },
c "nsofts": 1120,
c "nsoft_len_stats":
c    { "min": 2, "max": 2, "ave": 2.00,
c      "stddev": 0.00 },
c "nsoft_wts": 10,
c "soft_wt_stats":
c    { "min": 1, "max": 10, "ave": 5.65,
c      "stddev": 2.81 }
c}
c------------------------------------------------------------
c Generated after 1 tries
c Graph with 60 nodes and 560 edges, Max edges:1770
p wcnf 60 1120 6331
9 1 2 0
9 -1 -2 0
4 1 7 0
4 -1 -7 0
8 1 10 0
8 -1 -10 0
8 1 12 0
8 -1 -12 0
10 1 19 0
10 -1 -19 0
2 1 21 0
2 -1 -21 0
4 1 23 0
4 -1 -23 0
8 1 25 0
8 -1 -25 0
3 1 30 0
3 -1 -30 0
6 1 37 0
6 -1 -37 0
5 1 40 0
5 -1 -40 0
7 1 41 0
7 -1 -41 0
4 1 42 0
4 -1 -42 0
6 1 45 0
6 -1 -45 0
10 1 47 0
10 -1 -47 0
10 2 4 0
10 -2 -4 0
7 2 6 0
7 -2 -6 0
8 2 16 0
8 -2 -16 0
2 2 21 0
2 -2 -21 0
7 2 25 0
7 -2 -25 0
1 2 34 0
1 -2 -34 0
3 2 37 0
3 -2 -37 0
2 2 40 0
2 -2 -40 0
9 2 44 0
9 -2 -44 0
2 2 48 0
2 -2 -48 0
5 2 49 0
5 -2 -49 0
2 2 59 0
2 -2 -59 0
2 2 60 0
2 -2 -60 0
10 3 7 0
10 -3 -7 0
3 3 16 0
3 -3 -16 0
6 3 20 0
6 -3 -20 0
9 3 24 0
9 -3 -24 0
7 3 26 0
7 -3 -26 0
3 3 30 0
3 -3 -30 0
7 3 33 0
7 -3 -33 0
6 3 35 0
6 -3 -35 0
5 3 38 0
5 -3 -38 0
10 3 40 0
10 -3 -40 0
3 3 46 0
3 -3 -46 0
8 3 48 0
8 -3 -48 0
6 3 49 0
6 -3 -49 0
8 3 51 0
8 -3 -51 0
5 3 53 0
5 -3 -53 0
9 3 60 0
9 -3 -60 0
3 4 6 0
3 -4 -6 0
4 4 8 0
4 -4 -8 0
9 4 9 0
9 -4 -9 0
10 4 11 0
10 -4 -11 0
1 4 19 0
1 -4 -19 0
10 4 20 0
10 -4 -20 0
6 4 25 0
6 -4 -25 0
1 4 26 0
1 -4 -26 0
2 4 29 0
2 -4 -29 0
7 4 32 0
7 -4 -32 0
9 4 34 0
9 -4 -34 0
4 4 37 0
4 -4 -37 0
1 4 43 0
1 -4 -43 0
1 4 46 0
1 -4 -46 0
5 4 47 0
5 -4 -47 0
1 4 48 0
1 -4 -48 0
3 4 51 0
3 -4 -51 0
10 5 7 0
10 -5 -7 0
10 5 18 0
10 -5 -18 0
9 5 20 0
9 -5 -20 0
3 5 21 0
3 -5 -21 0
6 5 24 0
6 -5 -24 0
4 5 27 0
4 -5 -27 0
8 5 31 0
8 -5 -31 0
6 5 33 0
6 -5 -33 0
7 5 46 0
7 -5 -46 0
6 5 48 0
6 -5 -48 0
1 5 52 0
1 -5 -52 0
5 5 57 0
5 -5 -57 0
10 5 60 0
10 -5 -60 0
10 6 9 0
10 -6 -9 0
8 6 11 0
8 -6 -11 0
3 6 12 0
3 -6 -12 0
8 6 17 0
8 -6 -17 0
7 6 18 0
7 -6 -18 0
4 6 21 0
4 -6 -21 0
7 6 24 0
7 -6 -24 0
2 6 28 0
2 -6 -28 0
5 6 39 0
5 -6 -39 0
9 6 41 0
9 -6 -41 0
9 6 44 0
9 -6 -44 0
4 6 45 0
4 -6 -45 0
3 6 46 0
3 -6 -46 0
9 6 47 0
9 -6 -47 0
4 6 49 0
4 -6 -49 0
7 6 53 0
7 -6 -53 0
10 6 55 0
10 -6 -55 0
6 6 58 0
6 -6 -58 0
7 6 59 0
7 -6 -59 0
9 7 8 0
9 -7 -8 0
5 7 16 0
5 -7 -16 0
10 7 17 0
10 -7 -17 0
4 7 18 0
4 -7 -18 0
9 7 19 0
9 -7 -19 0
7 7 21 0
7 -7 -21 0
10 7 26 0
10 -7 -26 0
5 7 30 0
5 -7 -30 0
3 7 37 0
3 -7 -37 0
10 7 39 0
10 -7 -39 0
10 7 43 0
10 -7 -43 0
2 7 45 0
2 -7 -45 0
9 7 46 0
9 -7 -46 0
7 7 56 0
7 -7 -56 0
5 7 59 0
5 -7 -59 0
7 8 11 0
7 -8 -11 0
3 8 13 0
3 -8 -13 0
8 8 14 0
8 -8 -14 0
4 8 15 0
4 -8 -15 0
5 8 17 0
5 -8 -17 0
3 8 28 0
3 -8 -28 0
2 8 29 0
2 -8 -29 0
3 8 30 0
3 -8 -30 0
6 8 31 0
6 -8 -31 0
5 8 35 0
5 -8 -35 0
2 8 39 0
2 -8 -39 0
10 8 40 0
10 -8 -40 0
2 8 47 0
2 -8 -47 0
2 8 48 0
2 -8 -48 0
5 8 49 0
5 -8 -49 0
8 8 50 0
8 -8 -50 0
10 8 54 0
10 -8 -54 0
10 8 55 0
10 -8 -55 0
7 8 59 0
7 -8 -59 0
4 8 60 0
4 -8 -60 0
8 9 11 0
8 -9 -11 0
4 9 12 0
4 -9 -12 0
3 9 15 0
3 -9 -15 0
3 9 17 0
3 -9 -17 0
6 9 20 0
6 -9 -20 0
3 9 23 0
3 -9 -23 0
2 9 26 0
2 -9 -26 0
8 9 28 0
8 -9 -28 0
2 9 29 0
2 -9 -29 0
8 9 30 0
8 -9 -30 0
2 9 32 0
2 -9 -32 0
8 9 33 0
8 -9 -33 0
1 9 39 0
1 -9 -39 0
10 9 40 0
10 -9 -40 0
1 9 42 0
1 -9 -42 0
6 9 47 0
6 -9 -47 0
2 9 49 0
2 -9 -49 0
3 9 50 0
3 -9 -50 0
8 9 53 0
8 -9 -53 0
8 9 56 0
8 -9 -56 0
7 9 58 0
7 -9 -58 0
10 9 59 0
10 -9 -59 0
7 9 60 0
7 -9 -60 0
8 10 15 0
8 -10 -15 0
1 10 19 0
1 -10 -19 0
2 10 25 0
2 -10 -25 0
6 10 33 0
6 -10 -33 0
1 10 36 0
1 -10 -36 0
1 10 41 0
1 -10 -41 0
3 10 42 0
3 -10 -42 0
5 10 43 0
5 -10 -43 0
9 10 46 0
9 -10 -46 0
6 10 49 0
6 -10 -49 0
8 10 56 0
8 -10 -56 0
1 10 57 0
1 -10 -57 0
2 10 59 0
2 -10 -59 0
10 10 60 0
10 -10 -60 0
3 11 15 0
3 -11 -15 0
9 11 16 0
9 -11 -16 0
2 11 18 0
2 -11 -18 0
10 11 21 0
10 -11 -21 0
1 11 26 0
1 -11 -26 0
9 11 27 0
9 -11 -27 0
1 11 36 0
1 -11 -36 0
1 11 41 0
1 -11 -41 0
10 11 42 0
10 -11 -42 0
6 11 46 0
6 -11 -46 0
2 11 49 0
2 -11 -49 0
2 11 50 0
2 -11 -50 0
4 11 55 0
4 -11 -55 0
10 11 56 0
10 -11 -56 0
9 12 13 0
9 -12 -13 0
4 12 15 0
4 -12 -15 0
6 12 16 0
6 -12 -16 0
6 12 20 0
6 -12 -20 0
5 12 23 0
5 -12 -23 0
7 12 26 0
7 -12 -26 0
1 12 29 0
1 -12 -29 0
6 12 32 0
6 -12 -32 0
8 12 33 0
8 -12 -33 0
4 12 34 0
4 -12 -34 0
10 12 35 0
10 -12 -35 0
6 12 39 0
6 -12 -39 0
9 12 43 0
9 -12 -43 0
8 12 45 0
8 -12 -45 0
7 12 50 0
7 -12 -50 0
1 12 51 0
1 -12 -51 0
8 12 53 0
8 -12 -53 0
9 12 59 0
9 -12 -59 0
10 13 15 0
10 -13 -15 0
9 13 19 0
9 -13 -19 0
9 13 22 0
9 -13 -22 0
10 13 36 0
10 -13 -36 0
8 13 37 0
8 -13 -37 0
10 13 38 0
10 -13 -38 0
10 13 40 0
10 -13 -40 0
7 13 45 0
7 -13 -45 0
5 13 50 0
5 -13 -50 0
2 13 53 0
2 -13 -53 0
9 13 58 0
9 -13 -58 0
9 13 59 0
9 -13 -59 0
1 13 60 0
1 -13 -60 0
7 14 17 0
7 -14 -17 0
3 14 18 0
3 -14 -18 0
7 14 22 0
7 -14 -22 0
3 14 23 0
3 -14 -23 0
8 14 24 0
8 -14 -24 0
4 14 25 0
4 -14 -25 0
4 14 27 0
4 -14 -27 0
3 14 29 0
3 -14 -29 0
1 14 30 0
1 -14 -30 0
7 14 33 0
7 -14 -33 0
3 14 35 0
3 -14 -35 0
7 14 42 0
7 -14 -42 0
6 14 44 0
6 -14 -44 0
10 14 49 0
10 -14 -49 0
3 14 50 0
3 -14 -50 0
6 14 52 0
6 -14 -52 0
8 14 60 0
8 -14 -60 0
2 15 17 0
2 -15 -17 0
5 15 19 0
5 -15 -19 0
6 15 21 0
6 -15 -21 0
10 15 23 0
10 -15 -23 0
5 15 24 0
5 -15 -24 0
4 15 28 0
4 -15 -28 0
9 15 35 0
9 -15 -35 0
5 15 37 0
5 -15 -37 0
1 15 44 0
1 -15 -44 0
4 15 52 0
4 -15 -52 0
6 15 55 0
6 -15 -55 0
9 15 57 0
9 -15 -57 0
3 15 58 0
3 -15 -58 0
7 15 59 0
7 -15 -59 0
5 15 60 0
5 -15 -60 0
5 16 17 0
5 -16 -17 0
4 16 22 0
4 -16 -22 0
8 16 33 0
8 -16 -33 0
2 16 35 0
2 -16 -35 0
7 16 43 0
7 -16 -43 0
1 16 45 0
1 -16 -45 0
5 16 46 0
5 -16 -46 0
7 16 55 0
7 -16 -55 0
7 16 58 0
7 -16 -58 0
7 17 24 0
7 -17 -24 0
4 17 25 0
4 -17 -25 0
2 17 28 0
2 -17 -28 0
7 17 29 0
7 -17 -29 0
7 17 32 0
7 -17 -32 0
8 17 33 0
8 -17 -33 0
4 17 34 0
4 -17 -34 0
8 17 36 0
8 -17 -36 0
3 17 42 0
3 -17 -42 0
10 17 44 0
10 -17 -44 0
7 17 47 0
7 -17 -47 0
7 17 48 0
7 -17 -48 0
3 17 49 0
3 -17 -49 0
6 17 51 0
6 -17 -51 0
1 17 57 0
1 -17 -57 0
3 17 58 0
3 -17 -58 0
9 17 60 0
9 -17 -60 0
7 18 19 0
7 -18 -19 0
1 18 24 0
1 -18 -24 0
2 18 27 0
2 -18 -27 0
4 18 40 0
4 -18 -40 0
6 18 47 0
6 -18 -47 0
6 18 54 0
6 -18 -54 0
7 18 55 0
7 -18 -55 0
3 18 60 0
3 -18 -60 0
8 19 21 0
8 -19 -21 0
3 19 23 0
3 -19 -23 0
4 19 26 0
4 -19 -26 0
2 19 27 0
2 -19 -27 0
10 19 28 0
10 -19 -28 0
1 19 29 0
1 -19 -29 0
9 19 30 0
9 -19 -30 0
4 19 34 0
4 -19 -34 0
2 19 37 0
2 -19 -37 0
5 19 40 0
5 -19 -40 0
10 19 46 0
10 -19 -46 0
10 19 53 0
10 -19 -53 0
8 19 54 0
8 -19 -54 0
7 19 56 0
7 -19 -56 0
2 19 57 0
2 -19 -57 0
7 19 60 0
7 -19 -60 0
4 20 21 0
4 -20 -21 0
8 20 26 0
8 -20 -26 0
10 20 27 0
10 -20 -27 0
10 20 30 0
10 -20 -30 0
9 20 39 0
9 -20 -39 0
3 20 43 0
3 -20 -43 0
8 20 46 0
8 -20 -46 0
6 20 49 0
6 -20 -49 0
3 20 51 0
3 -20 -51 0
10 20 52 0
10 -20 -52 0
10 20 54 0
10 -20 -54 0
9 20 60 0
9 -20 -60 0
5 21 22 0
5 -21 -22 0
6 21 23 0
6 -21 -23 0
2 21 24 0
2 -21 -24 0
3 21 27 0
3 -21 -27 0
9 21 29 0
9 -21 -29 0
5 21 33 0
5 -21 -33 0
5 21 35 0
5 -21 -35 0
9 21 37 0
9 -21 -37 0
5 21 38 0
5 -21 -38 0
3 21 40 0
3 -21 -40 0
2 21 41 0
2 -21 -41 0
7 21 43 0
7 -21 -43 0
8 21 46 0
8 -21 -46 0
2 21 49 0
2 -21 -49 0
7 21 51 0
7 -21 -51 0
5 21 59 0
5 -21 -59 0
9 22 25 0
9 -22 -25 0
8 22 26 0
8 -22 -26 0
2 22 32 0
2 -22 -32 0
3 22 36 0
3 -22 -36 0
5 22 38 0
5 -22 -38 0
2 22 39 0
2 -22 -39 0
2 22 41 0
2 -22 -41 0
4 22 42 0
4 -22 -42 0
4 22 43 0
4 -22 -43 0
10 22 47 0
10 -22 -47 0
10 22 55 0
10 -22 -55 0
7 22 57 0
7 -22 -57 0
9 23 24 0
9 -23 -24 0
9 23 28 0
9 -23 -28 0
5 23 29 0
5 -23 -29 0
4 23 32 0
4 -23 -32 0
4 23 35 0
4 -23 -35 0
7 23 40 0
7 -23 -40 0
7 23 42 0
7 -23 -42 0
3 23 45 0
3 -23 -45 0
2 23 49 0
2 -23 -49 0
1 23 51 0
1 -23 -51 0
2 23 52 0
2 -23 -52 0
7 23 56 0
7 -23 -56 0
4 23 57 0
4 -23 -57 0
3 24 28 0
3 -24 -28 0
4 24 33 0
4 -24 -33 0
1 24 35 0
1 -24 -35 0
5 24 39 0
5 -24 -39 0
10 24 41 0
10 -24 -41 0
6 24 42 0
6 -24 -42 0
3 24 45 0
3 -24 -45 0
7 24 47 0
7 -24 -47 0
8 24 49 0
8 -24 -49 0
5 24 56 0
5 -24 -56 0
2 24 57 0
2 -24 -57 0
9 25 36 0
9 -25 -36 0
7 25 37 0
7 -25 -37 0
6 25 39 0
6 -25 -39 0
3 25 45 0
3 -25 -45 0
6 25 49 0
6 -25 -49 0
5 25 51 0
5 -25 -51 0
9 25 56 0
9 -25 -56 0
4 25 57 0
4 -25 -57 0
3 25 59 0
3 -25 -59 0
4 25 60 0
4 -25 -60 0
8 26 29 0
8 -26 -29 0
7 26 35 0
7 -26 -35 0
10 26 37 0
10 -26 -37 0
4 26 39 0
4 -26 -39 0
9 26 40 0
9 -26 -40 0
2 26 41 0
2 -26 -41 0
5 26 43 0
5 -26 -43 0
1 26 44 0
1 -26 -44 0
8 26 46 0
8 -26 -46 0
8 26 47 0
8 -26 -47 0
3 26 50 0
3 -26 -50 0
2 26 54 0
2 -26 -54 0
9 27 29 0
9 -27 -29 0
8 27 38 0
8 -27 -38 0
1 27 40 0
1 -27 -40 0
5 27 42 0
5 -27 -42 0
10 27 43 0
10 -27 -43 0
8 27 44 0
8 -27 -44 0
3 27 48 0
3 -27 -48 0
5 27 50 0
5 -27 -50 0
9 27 51 0
9 -27 -51 0
1 27 52 0
1 -27 -52 0
1 27 54 0
1 -27 -54 0
4 27 55 0
4 -27 -55 0
4 27 56 0
4 -27 -56 0
7 27 57 0
7 -27 -57 0
9 27 60 0
9 -27 -60 0
2 28 29 0
2 -28 -29 0
1 28 31 0
1 -28 -31 0
1 28 32 0
1 -28 -32 0
5 28 41 0
5 -28 -41 0
8 28 44 0
8 -28 -44 0
7 28 45 0
7 -28 -45 0
5 28 49 0
5 -28 -49 0
2 28 51 0
2 -28 -51 0
6 28 52 0
6 -28 -52 0
6 28 55 0
6 -28 -55 0
6 28 60 0
6 -28 -60 0
6 29 47 0
6 -29 -47 0
4 29 48 0
4 -29 -48 0
4 29 50 0
4 -29 -50 0
9 29 51 0
9 -29 -51 0
5 29 53 0
5 -29 -53 0
2 29 55 0
2 -29 -55 0
7 29 56 0
7 -29 -56 0
6 29 58 0
6 -29 -58 0
7 29 60 0
7 -29 -60 0
6 30 33 0
6 -30 -33 0
3 30 37 0
3 -30 -37 0
9 30 40 0
9 -30 -40 0
1 30 41 0
1 -30 -41 0
1 30 43 0
1 -30 -43 0
10 30 46 0
10 -30 -46 0
2 30 47 0
2 -30 -47 0
5 30 50 0
5 -30 -50 0
3 30 54 0
3 -30 -54 0
9 31 33 0
9 -31 -33 0
3 31 41 0
3 -31 -41 0
4 31 51 0
4 -31 -51 0
9 32 34 0
9 -32 -34 0
4 32 36 0
4 -32 -36 0
9 32 37 0
9 -32 -37 0
7 32 39 0
7 -32 -39 0
1 32 43 0
1 -32 -43 0
3 32 44 0
3 -32 -44 0
8 32 46 0
8 -32 -46 0
7 32 48 0
7 -32 -48 0
9 32 49 0
9 -32 -49 0
4 32 53 0
4 -32 -53 0
3 32 57 0
3 -32 -57 0
2 32 59 0
2 -32 -59 0
7 33 36 0
7 -33 -36 0
2 33 38 0
2 -33 -38 0
7 33 39 0
7 -33 -39 0
8 33 44 0
8 -33 -44 0
8 33 45 0
8 -33 -45 0
3 33 47 0
3 -33 -47 0
5 33 49 0
5 -33 -49 0
4 33 54 0
4 -33 -54 0
5 34 38 0
5 -34 -38 0
3 34 43 0
3 -34 -43 0
4 34 58 0
4 -34 -58 0
6 34 59 0
6 -34 -59 0
2 34 60 0
2 -34 -60 0
6 35 37 0
6 -35 -37 0
1 35 38 0
1 -35 -38 0
4 35 46 0
4 -35 -46 0
4 35 51 0
4 -35 -51 0
4 35 56 0
4 -35 -56 0
8 35 60 0
8 -35 -60 0
3 36 40 0
3 -36 -40 0
7 36 44 0
7 -36 -44 0
6 36 45 0
6 -36 -45 0
10 36 47 0
10 -36 -47 0
7 36 48 0
7 -36 -48 0
9 36 50 0
9 -36 -50 0
7 36 51 0
7 -36 -51 0
4 36 53 0
4 -36 -53 0
7 36 56 0
7 -36 -56 0
1 36 59 0
1 -36 -59 0
6 37 45 0
6 -37 -45 0
9 37 51 0
9 -37 -51 0
7 37 58 0
7 -37 -58 0
7 37 60 0
7 -37 -60 0
6 38 39 0
6 -38 -39 0
5 38 50 0
5 -38 -50 0
4 38 53 0
4 -38 -53 0
8 38 54 0
8 -38 -54 0
9 38 55 0
9 -38 -55 0
7 38 58 0
7 -38 -58 0
2 38 59 0
2 -38 -59 0
1 38 60 0
1 -38 -60 0
1 39 40 0
1 -39 -40 0
7 39 42 0
7 -39 -42 0
2 39 44 0
2 -39 -44 0
7 39 50 0
7 -39 -50 0
8 39 52 0
8 -39 -52 0
6 39 58 0
6 -39 -58 0
1 40 41 0
1 -40 -41 0
1 40 43 0
1 -40 -43 0
4 40 48 0
4 -40 -48 0
3 40 49 0
3 -40 -49 0
7 40 50 0
7 -40 -50 0
9 40 53 0
9 -40 -53 0
2 40 57 0
2 -40 -57 0
4 40 59 0
4 -40 -59 0
7 40 60 0
7 -40 -60 0
9 41 43 0
9 -41 -43 0
7 41 44 0
7 -41 -44 0
4 41 45 0
4 -41 -45 0
9 41 46 0
9 -41 -46 0
2 41 52 0
2 -41 -52 0
2 41 55 0
2 -41 -55 0
6 41 58 0
6 -41 -58 0
9 42 43 0
9 -42 -43 0
7 42 44 0
7 -42 -44 0
10 42 45 0
10 -42 -45 0
2 42 46 0
2 -42 -46 0
4 42 48 0
4 -42 -48 0
8 42 50 0
8 -42 -50 0
9 42 51 0
9 -42 -51 0
6 42 54 0
6 -42 -54 0
8 42 59 0
8 -42 -59 0
10 43 44 0
10 -43 -44 0
3 43 48 0
3 -43 -48 0
10 43 51 0
10 -43 -51 0
6 43 54 0
6 -43 -54 0
10 43 55 0
10 -43 -55 0
5 43 57 0
5 -43 -57 0
6 43 59 0
6 -43 -59 0
10 44 46 0
10 -44 -46 0
8 44 47 0
8 -44 -47 0
9 44 50 0
9 -44 -50 0
6 44 52 0
6 -44 -52 0
7 44 56 0
7 -44 -56 0
10 44 60 0
10 -44 -60 0
10 45 46 0
10 -45 -46 0
4 45 48 0
4 -45 -48 0
9 45 51 0
9 -45 -51 0
6 45 52 0
6 -45 -52 0
7 45 55 0
7 -45 -55 0
8 46 55 0
8 -46 -55 0
8 47 48 0
8 -47 -48 0
8 47 54 0
8 -47 -54 0
3 47 60 0
3 -47 -60 0
7 48 51 0
7 -48 -51 0
5 48 53 0
5 -48 -53 0
2 48 54 0
2 -48 -54 0
8 48 55 0
8 -48 -55 0
9 48 57 0
9 -48 -57 0
9 49 51 0
9 -49 -51 0
7 49 55 0
7 -49 -55 0
5 49 56 0
5 -49 -56 0
7 50 51 0
7 -50 -51 0
6 50 52 0
6 -50 -52 0
7 50 58 0
7 -50 -58 0
6 51 54 0
6 -51 -54 0
2 51 55 0
2 -51 -55 0
6 51 59 0
6 -51 -59 0
1 52 53 0
1 -52 -53 0
8 52 54 0
8 -52 -54 0
6 52 58 0
6 -52 -58 0
9 52 60 0
9 -52 -60 0
6 53 55 0
6 -53 -55 0
2 53 56 0
2 -53 -56 0
5 53 59 0
5 -53 -59 0
6 54 57 0
6 -54 -57 0
1 55 56 0
1 -55 -56 0
9 55 57 0
9 -55 -57 0
4 55 58 0
4 -55 -58 0
7 56 57 0
7 -56 -57 0
5 56 59 0
5 -56 -59 0
2 57 58 0
2 -57 -58 0
5 58 59 0
5 -58 -59 0
